(set-info :source |printed by MathSAT|)
(declare-fun |.x{1016}| () Int)
(declare-fun |.x{1672}| () Int)
(declare-fun |.x{1017}| () (Array Int Int))
(declare-fun |.x{1673}| () (Array Int Int))
(declare-fun |.x{1018}| () (Array Int Int))
(declare-fun |.x{1674}| () (Array Int Int))
(declare-fun |.x{1019}| () (Array Int (Array Int Int)))
(declare-fun |.x{1675}| () (Array Int (Array Int Int)))
(declare-fun |.x{1020}| () (Array Int (Array Int Int)))
(declare-fun |.x{1676}| () (Array Int (Array Int Int)))
(declare-fun |.x{1021}| () Int)
(declare-fun |.x{1677}| () Int)
(declare-fun |.x{1022}| () Int)
(declare-fun |.x{1678}| () Int)
(declare-fun |.x{1023}| () (Array Int Int))
(declare-fun |.x{1679}| () (Array Int Int))
(declare-fun |.x{1024}| () (Array Int Int))
(declare-fun |.x{1680}| () (Array Int Int))
(declare-fun |.x{1025}| () Int)
(declare-fun |.x{1681}| () Int)
(declare-fun |.x{1026}| () Int)
(declare-fun |.x{1682}| () Int)
(declare-fun |.x{1027}| () Int)
(declare-fun |.x{1683}| () Int)
(declare-fun |.x{1028}| () Int)
(declare-fun |.x{1684}| () Int)
(declare-fun |.x{1058}| () Int)
(declare-fun |.x{1685}| () Int)
(declare-fun |.x{1030}| () Int)
(declare-fun |.x{1686}| () Int)
(declare-fun |.x{1031}| () Bool)
(declare-fun |.x{1687}| () Bool)
(declare-fun |.x{1032}| () Int)
(declare-fun |.x{1688}| () Int)
(declare-fun |.x{1033}| () Bool)
(declare-fun |.x{1689}| () Bool)
(declare-fun |.x{1034}| () Int)
(declare-fun |.x{1690}| () Int)
(declare-fun |.x{1035}| () Int)
(declare-fun |.x{1691}| () Int)
(declare-fun |.x{1036}| () Int)
(declare-fun |.x{1692}| () Int)
(declare-fun |.x{1037}| () Int)
(declare-fun |.x{1693}| () Int)
(declare-fun |.x{1038}| () Int)
(declare-fun |.x{1694}| () Int)
(declare-fun |.x{1039}| () Int)
(declare-fun |.x{1695}| () Int)
(declare-fun |.x{1069}| () Int)
(declare-fun |.x{1696}| () Int)
(declare-fun |.x{1041}| () Int)
(declare-fun |.x{1697}| () Int)
(declare-fun |.x{1042}| () Int)
(declare-fun |.x{1698}| () Int)
(declare-fun |.x{1043}| () Int)
(declare-fun |.x{1699}| () Int)
(declare-fun |.x{1044}| () Bool)
(declare-fun |.x{1642}| () Bool)
(declare-fun |.loc{5}| () Bool)
(declare-fun |.loc{9}| () Bool)
(declare-fun |.loc{6}| () Bool)
(declare-fun |.loc{10}| () Bool)
(declare-fun |.loc{7}| () Bool)
(declare-fun |.loc{11}| () Bool)
(declare-fun |.loc{8}| () Bool)
(declare-fun |.loc{12}| () Bool)
(declare-fun |.x{2083}| () Bool)
(declare-fun |.x{552}| () Int)
(declare-fun |.x{115}| () (Array Int Int))
(define-fun .def_68 () Bool (! |.loc{6}| :next |.loc{10}|))
(define-fun .def_148 () Bool (not .def_68))
(define-fun .def_66 () Bool (! |.loc{5}| :next |.loc{9}|))
(define-fun .def_146 () Bool (not .def_66))
(define-fun .def_693 () Bool (and .def_146 .def_148))
(define-fun .def_70 () Bool (! |.loc{7}| :next |.loc{11}|))
(define-fun .def_694 () Bool (and .def_70 .def_693))
(define-fun .def_72 () Bool (! |.loc{8}| :next |.loc{12}|))
(define-fun .def_218 () Bool (not .def_72))
(define-fun .def_695 () Bool (and .def_218 .def_694))
(define-fun .def_28 () Int (! |.x{1026}| :next |.x{1682}|))
(define-fun .def_26 () Int (! |.x{1025}| :next |.x{1681}|))
(define-fun .def_687 () Bool (= .def_26 .def_28))
(define-fun .def_16 () (Array Int (Array Int Int)) (! |.x{1020}| :next |.x{1676}|))
(define-fun .def_14 () (Array Int (Array Int Int)) (! |.x{1019}| :next |.x{1675}|))
(define-fun .def_686 () Bool (= .def_14 .def_16))
(define-fun .def_688 () Bool (and .def_686 .def_687))
(define-fun .def_20 () Int (! |.x{1022}| :next |.x{1678}|))
(define-fun .def_18 () Int (! |.x{1021}| :next |.x{1677}|))
(define-fun .def_685 () Bool (= .def_18 .def_20))
(define-fun .def_689 () Bool (and .def_685 .def_688))
(define-fun .def_24 () (Array Int Int) (! |.x{1024}| :next |.x{1680}|))
(define-fun .def_22 () (Array Int Int) (! |.x{1023}| :next |.x{1679}|))
(define-fun .def_684 () Bool (= .def_22 .def_24))
(define-fun .def_690 () Bool (and .def_684 .def_689))
(define-fun .def_64 () Bool (! |.x{1044}| :next |.x{1642}|))
(define-fun .def_683 () Bool (not .def_64))
(define-fun .def_691 () Bool (and .def_683 .def_690))
(define-fun .def_12 () (Array Int Int) (! |.x{1018}| :next |.x{1674}|))
(define-fun .def_10 () (Array Int Int) (! |.x{1017}| :next |.x{1673}|))
(define-fun .def_682 () Bool (= .def_10 .def_12))
(define-fun .def_692 () Bool (and .def_682 .def_691))
(define-fun .def_696 () Bool (! (and .def_692 .def_695) :init true))
(define-fun .def_679 () Bool (= .def_28 |.x{1682}|))
(define-fun .def_677 () Bool (= .def_24 |.x{1680}|))
(define-fun .def_675 () Bool (= .def_20 |.x{1678}|))
(define-fun .def_673 () Bool (= .def_16 |.x{1676}|))
(define-fun .def_8 () Int (! |.x{1016}| :next |.x{1672}|))
(define-fun .def_671 () Bool (= .def_8 |.x{1672}|))
(define-fun .def_670 () Bool (= .def_12 |.x{1674}|))
(define-fun .def_672 () Bool (and .def_670 .def_671))
(define-fun .def_674 () Bool (and .def_672 .def_673))
(define-fun .def_676 () Bool (and .def_674 .def_675))
(define-fun .def_678 () Bool (and .def_676 .def_677))
(define-fun .def_680 () Bool (and .def_678 .def_679))
(define-fun .def_587 () Bool (= |.x{1685}| 0))
(define-fun .def_634 () Bool (or .def_64 .def_587))
(define-fun .def_30 () Int (! |.x{1027}| :next |.x{1683}|))
(define-fun .def_563 () Bool (= .def_30 |.x{1696}|))
(define-fun .def_562 () Bool (= |.x{1685}| |.x{1696}|))
(define-fun .def_564 () Bool (and .def_562 .def_563))
(define-fun .def_565 () Bool (or .def_64 .def_564))
(define-fun .def_105 () Bool (= .def_10 |.x{1673}|))
(define-fun .def_624 () Bool (and .def_105 .def_565))
(define-fun .def_625 () Bool (and |.x{1642}| .def_624))
(define-fun .def_32 () Int (! |.x{1028}| :next |.x{1684}|))
(define-fun .def_119 () Bool (= .def_32 |.x{1684}|))
(define-fun .def_626 () Bool (and .def_119 .def_625))
(define-fun .def_40 () Int (! |.x{1032}| :next |.x{1688}|))
(define-fun .def_125 () Bool (= .def_40 |.x{1688}|))
(define-fun .def_627 () Bool (and .def_125 .def_626))
(define-fun .def_44 () Int (! |.x{1034}| :next |.x{1690}|))
(define-fun .def_127 () Bool (= .def_44 |.x{1690}|))
(define-fun .def_628 () Bool (and .def_127 .def_627))
(define-fun .def_46 () Int (! |.x{1035}| :next |.x{1691}|))
(define-fun .def_131 () Bool (= .def_46 |.x{1691}|))
(define-fun .def_629 () Bool (and .def_131 .def_628))
(define-fun .def_54 () Int (! |.x{1039}| :next |.x{1695}|))
(define-fun .def_137 () Bool (= .def_54 |.x{1695}|))
(define-fun .def_630 () Bool (and .def_137 .def_629))
(define-fun .def_58 () Int (! |.x{1041}| :next |.x{1697}|))
(define-fun .def_139 () Bool (= .def_58 |.x{1697}|))
(define-fun .def_631 () Bool (and .def_139 .def_630))
(define-fun .def_632 () Bool (and .def_66 .def_631))
(define-fun .def_633 () Bool (and .def_148 .def_632))
(define-fun .def_635 () Bool (and .def_633 .def_634))
(define-fun .def_621 () Bool (= |.x{1688}| |.x{1691}|))
(define-fun .def_622 () Bool (or |.x{1642}| .def_621))
(define-fun .def_613 () (Array Int Int) (store .def_10 .def_44 0))
(define-fun .def_614 () (Array Int Int) (store .def_613 .def_54 0))
(define-fun .def_615 () Bool (= |.x{1673}| .def_614))
(define-fun .def_612 () Bool (= |.x{1691}| 0))
(define-fun .def_616 () Bool (and .def_612 .def_615))
(define-fun .def_617 () Bool (or .def_64 .def_616))
(define-fun .def_34 () Int (! |.x{1058}| :next |.x{1685}|))
(define-fun .def_80 () Bool (= .def_34 |.x{1685}|))
(define-fun .def_78 () Bool (= .def_64 |.x{1642}|))
(define-fun .def_56 () Int (! |.x{1069}| :next |.x{1696}|))
(define-fun .def_77 () Bool (= .def_56 |.x{1696}|))
(define-fun .def_79 () Bool (and .def_77 .def_78))
(define-fun .def_81 () Bool (and .def_79 .def_80))
(define-fun .def_618 () Bool (and .def_81 .def_617))
(define-fun .def_619 () Bool (and .def_68 .def_618))
(define-fun .def_620 () Bool (and .def_146 .def_619))
(define-fun .def_623 () Bool (and .def_620 .def_622))
(define-fun .def_636 () Bool (or .def_623 .def_635))
(define-fun .def_637 () Bool (and |.loc{10}| .def_636))
(define-fun .def_76 () Bool (not |.loc{10}|))
(define-fun .def_82 () Bool (and .def_76 .def_81))
(define-fun .def_539 () Bool (and .def_82 .def_105))
(define-fun .def_540 () Bool (and .def_119 .def_539))
(define-fun .def_552 () Bool (and .def_125 .def_540))
(define-fun .def_605 () Bool (and .def_64 .def_552))
(define-fun .def_606 () Bool (and .def_127 .def_605))
(define-fun .def_607 () Bool (and .def_131 .def_606))
(define-fun .def_608 () Bool (and .def_137 .def_607))
(define-fun .def_609 () Bool (and .def_139 .def_608))
(define-fun .def_610 () Bool (and .def_146 .def_609))
(define-fun .def_611 () Bool (and .def_148 .def_610))
(define-fun .def_638 () Bool (or .def_611 .def_637))
(define-fun .def_36 () Int (! |.x{1030}| :next |.x{1686}|))
(define-fun .def_93 () Bool (<= 100000 .def_36))
(define-fun .def_467 () Bool (or .def_64 .def_93))
(define-fun .def_595 () Bool (and .def_82 .def_467))
(define-fun .def_596 () Bool (and .def_105 .def_595))
(define-fun .def_597 () Bool (and .def_119 .def_596))
(define-fun .def_598 () Bool (and .def_125 .def_597))
(define-fun .def_599 () Bool (and .def_127 .def_598))
(define-fun .def_600 () Bool (and .def_131 .def_599))
(define-fun .def_601 () Bool (and .def_137 .def_600))
(define-fun .def_602 () Bool (and .def_139 .def_601))
(define-fun .def_603 () Bool (and .def_146 .def_602))
(define-fun .def_604 () Bool (and .def_148 .def_603))
(define-fun .def_639 () Bool (or .def_604 .def_638))
(define-fun .def_640 () Bool (and |.loc{9}| .def_639))
(define-fun .def_588 () Bool (not .def_587))
(define-fun .def_589 () Bool (or |.x{1642}| .def_588))
(define-fun .def_579 () Bool (and |.loc{10}| .def_78))
(define-fun .def_580 () Bool (and .def_565 .def_579))
(define-fun .def_581 () Bool (and .def_105 .def_580))
(define-fun .def_582 () Bool (and .def_119 .def_581))
(define-fun .def_583 () Bool (and .def_125 .def_582))
(define-fun .def_584 () Bool (and .def_127 .def_583))
(define-fun .def_129 () Bool (not |.loc{9}|))
(define-fun .def_585 () Bool (and .def_129 .def_584))
(define-fun .def_586 () Bool (and .def_131 .def_585))
(define-fun .def_590 () Bool (and .def_586 .def_589))
(define-fun .def_591 () Bool (and .def_137 .def_590))
(define-fun .def_592 () Bool (and .def_139 .def_591))
(define-fun .def_593 () Bool (and .def_66 .def_592))
(define-fun .def_594 () Bool (and .def_148 .def_593))
(define-fun .def_641 () Bool (or .def_594 .def_640))
(define-fun .def_566 () Bool (and |.loc{10}| .def_565))
(define-fun .def_567 () Bool (and .def_105 .def_566))
(define-fun .def_568 () Bool (and |.x{1642}| .def_567))
(define-fun .def_569 () Bool (and .def_119 .def_568))
(define-fun .def_570 () Bool (and .def_125 .def_569))
(define-fun .def_571 () Bool (and .def_64 .def_570))
(define-fun .def_572 () Bool (and .def_127 .def_571))
(define-fun .def_573 () Bool (and .def_129 .def_572))
(define-fun .def_574 () Bool (and .def_131 .def_573))
(define-fun .def_575 () Bool (and .def_137 .def_574))
(define-fun .def_576 () Bool (and .def_139 .def_575))
(define-fun .def_577 () Bool (and .def_66 .def_576))
(define-fun .def_578 () Bool (and .def_148 .def_577))
(define-fun .def_642 () Bool (or .def_578 .def_641))
(define-fun .def_121 () Bool (= .def_36 |.x{1686}|))
(define-fun .def_643 () Bool (and .def_121 .def_642))
(define-fun .def_644 () Bool (and .def_72 .def_643))
(define-fun .def_553 () Bool (and .def_218 .def_552))
(define-fun .def_554 () Bool (and .def_127 .def_553))
(define-fun .def_555 () Bool (and .def_129 .def_554))
(define-fun .def_556 () Bool (and .def_131 .def_555))
(define-fun .def_453 () Int (* (- 1) |.x{1686}|))
(define-fun .def_454 () Int (+ .def_36 .def_453))
(define-fun .def_455 () Bool (= .def_454 (- 1)))
(define-fun .def_456 () Bool (or .def_64 .def_455))
(define-fun .def_557 () Bool (and .def_456 .def_556))
(define-fun .def_558 () Bool (and .def_137 .def_557))
(define-fun .def_559 () Bool (and .def_139 .def_558))
(define-fun .def_560 () Bool (and .def_66 .def_559))
(define-fun .def_561 () Bool (and .def_68 .def_560))
(define-fun .def_645 () Bool (or .def_561 .def_644))
(define-fun .def_117 () Bool (= .def_30 |.x{1683}|))
(define-fun .def_646 () Bool (and .def_117 .def_645))
(define-fun .def_150 () Bool (not .def_70))
(define-fun .def_647 () Bool (and .def_150 .def_646))
(define-fun .def_536 () Bool (= |.x{1683}| 1))
(define-fun .def_349 () Bool (= |.x{1686}| 0))
(define-fun .def_537 () Bool (and .def_349 .def_536))
(define-fun .def_538 () Bool (or .def_64 .def_537))
(define-fun .def_541 () Bool (and .def_538 .def_540))
(define-fun .def_542 () Bool (and .def_125 .def_541))
(define-fun .def_543 () Bool (and .def_218 .def_542))
(define-fun .def_544 () Bool (and .def_127 .def_543))
(define-fun .def_545 () Bool (and .def_129 .def_544))
(define-fun .def_546 () Bool (and .def_131 .def_545))
(define-fun .def_547 () Bool (and .def_137 .def_546))
(define-fun .def_548 () Bool (and .def_139 .def_547))
(define-fun .def_549 () Bool (and .def_66 .def_548))
(define-fun .def_550 () Bool (and .def_68 .def_549))
(define-fun .def_551 () Bool (and .def_70 .def_550))
(define-fun .def_648 () Bool (or .def_551 .def_647))
(define-fun .def_649 () Bool (and |.loc{12}| .def_648))
(define-fun .def_38 () Bool (! |.x{1031}| :next |.x{1687}|))
(define-fun .def_123 () Bool (= .def_38 |.x{1687}|))
(define-fun .def_650 () Bool (and .def_123 .def_649))
(define-fun .def_60 () Int (! |.x{1042}| :next |.x{1698}|))
(define-fun .def_141 () Bool (= .def_60 |.x{1698}|))
(define-fun .def_651 () Bool (and .def_141 .def_650))
(define-fun .def_62 () Int (! |.x{1043}| :next |.x{1699}|))
(define-fun .def_143 () Bool (= .def_62 |.x{1699}|))
(define-fun .def_652 () Bool (and .def_143 .def_651))
(define-fun .def_235 () Bool (= |.x{1683}| 0))
(define-fun .def_522 () Bool (and .def_38 .def_235))
(define-fun .def_523 () Bool (or .def_64 .def_522))
(define-fun .def_202 () Bool (and |.loc{9}| .def_79))
(define-fun .def_203 () Bool (and .def_80 .def_202))
(define-fun .def_465 () Bool (and |.loc{10}| .def_203))
(define-fun .def_506 () Bool (and .def_105 .def_465))
(define-fun .def_107 () Bool (not |.loc{12}|))
(define-fun .def_521 () Bool (and .def_107 .def_506))
(define-fun .def_524 () Bool (and .def_521 .def_523))
(define-fun .def_525 () Bool (and .def_119 .def_524))
(define-fun .def_526 () Bool (and .def_121 .def_525))
(define-fun .def_527 () Bool (and .def_125 .def_526))
(define-fun .def_528 () Bool (and .def_218 .def_527))
(define-fun .def_529 () Bool (and .def_127 .def_528))
(define-fun .def_530 () Bool (and .def_131 .def_529))
(define-fun .def_531 () Bool (and .def_137 .def_530))
(define-fun .def_532 () Bool (and .def_139 .def_531))
(define-fun .def_533 () Bool (and .def_68 .def_532))
(define-fun .def_534 () Bool (and .def_146 .def_533))
(define-fun .def_535 () Bool (and .def_150 .def_534))
(define-fun .def_653 () Bool (or .def_535 .def_652))
(define-fun .def_504 () Bool (not .def_38))
(define-fun .def_505 () Bool (or .def_64 .def_504))
(define-fun .def_507 () Bool (and .def_505 .def_506))
(define-fun .def_508 () Bool (and .def_107 .def_507))
(define-fun .def_509 () Bool (and .def_117 .def_508))
(define-fun .def_510 () Bool (and .def_119 .def_509))
(define-fun .def_511 () Bool (and .def_121 .def_510))
(define-fun .def_512 () Bool (and .def_125 .def_511))
(define-fun .def_513 () Bool (and .def_218 .def_512))
(define-fun .def_514 () Bool (and .def_127 .def_513))
(define-fun .def_515 () Bool (and .def_131 .def_514))
(define-fun .def_516 () Bool (and .def_137 .def_515))
(define-fun .def_517 () Bool (and .def_139 .def_516))
(define-fun .def_518 () Bool (and .def_68 .def_517))
(define-fun .def_519 () Bool (and .def_146 .def_518))
(define-fun .def_520 () Bool (and .def_150 .def_519))
(define-fun .def_654 () Bool (or .def_520 .def_653))
(define-fun .def_84 () Bool (not |.loc{11}|))
(define-fun .def_655 () Bool (and .def_84 .def_654))
(define-fun .def_466 () Bool (and |.loc{11}| .def_465))
(define-fun .def_486 () Bool (and .def_105 .def_466))
(define-fun .def_487 () Bool (and .def_107 .def_486))
(define-fun .def_488 () Bool (and .def_117 .def_487))
(define-fun .def_489 () Bool (and .def_119 .def_488))
(define-fun .def_490 () Bool (and .def_121 .def_489))
(define-fun .def_491 () Bool (and .def_123 .def_490))
(define-fun .def_492 () Bool (and .def_125 .def_491))
(define-fun .def_493 () Bool (and .def_64 .def_492))
(define-fun .def_494 () Bool (and .def_218 .def_493))
(define-fun .def_495 () Bool (and .def_127 .def_494))
(define-fun .def_496 () Bool (and .def_131 .def_495))
(define-fun .def_497 () Bool (and .def_137 .def_496))
(define-fun .def_498 () Bool (and .def_139 .def_497))
(define-fun .def_499 () Bool (and .def_141 .def_498))
(define-fun .def_500 () Bool (and .def_143 .def_499))
(define-fun .def_501 () Bool (and .def_68 .def_500))
(define-fun .def_502 () Bool (and .def_70 .def_501))
(define-fun .def_503 () Bool (and .def_146 .def_502))
(define-fun .def_656 () Bool (or .def_503 .def_655))
(define-fun .def_468 () Bool (and .def_466 .def_467))
(define-fun .def_469 () Bool (and .def_105 .def_468))
(define-fun .def_470 () Bool (and .def_107 .def_469))
(define-fun .def_471 () Bool (and .def_117 .def_470))
(define-fun .def_472 () Bool (and .def_119 .def_471))
(define-fun .def_473 () Bool (and .def_121 .def_472))
(define-fun .def_474 () Bool (and .def_123 .def_473))
(define-fun .def_475 () Bool (and .def_125 .def_474))
(define-fun .def_476 () Bool (and .def_218 .def_475))
(define-fun .def_477 () Bool (and .def_127 .def_476))
(define-fun .def_478 () Bool (and .def_131 .def_477))
(define-fun .def_479 () Bool (and .def_137 .def_478))
(define-fun .def_480 () Bool (and .def_139 .def_479))
(define-fun .def_481 () Bool (and .def_141 .def_480))
(define-fun .def_482 () Bool (and .def_143 .def_481))
(define-fun .def_483 () Bool (and .def_68 .def_482))
(define-fun .def_484 () Bool (and .def_70 .def_483))
(define-fun .def_485 () Bool (and .def_146 .def_484))
(define-fun .def_657 () Bool (or .def_485 .def_656))
(define-fun .def_324 () Bool (and |.loc{10}| .def_81))
(define-fun .def_325 () Bool (and |.loc{11}| .def_324))
(define-fun .def_442 () Bool (and .def_105 .def_325))
(define-fun .def_443 () Bool (and .def_107 .def_442))
(define-fun .def_444 () Bool (and .def_117 .def_443))
(define-fun .def_445 () Bool (and .def_119 .def_444))
(define-fun .def_446 () Bool (and .def_123 .def_445))
(define-fun .def_447 () Bool (and .def_125 .def_446))
(define-fun .def_448 () Bool (and .def_218 .def_447))
(define-fun .def_449 () Bool (and .def_127 .def_448))
(define-fun .def_450 () Bool (and .def_129 .def_449))
(define-fun .def_451 () Bool (and .def_131 .def_450))
(define-fun .def_457 () Bool (and .def_451 .def_456))
(define-fun .def_458 () Bool (and .def_137 .def_457))
(define-fun .def_459 () Bool (and .def_139 .def_458))
(define-fun .def_460 () Bool (and .def_141 .def_459))
(define-fun .def_461 () Bool (and .def_66 .def_460))
(define-fun .def_462 () Bool (and .def_143 .def_461))
(define-fun .def_463 () Bool (and .def_70 .def_462))
(define-fun .def_464 () Bool (and .def_148 .def_463))
(define-fun .def_658 () Bool (or .def_464 .def_657))
(define-fun .def_387 () Bool (<= 0 |.x{1699}|))
(define-fun .def_170 () Bool (not |.x{2083}|))
(define-fun .def_424 () Bool (and .def_170 .def_387))
(define-fun .def_388 () Bool (not .def_387))
(define-fun .def_423 () Bool (and |.x{2083}| .def_388))
(define-fun .def_425 () Bool (or .def_423 .def_424))
(define-fun .def_97 () Int (* 4 .def_36))
(define-fun .def_98 () Int (+ .def_32 .def_97))
(define-fun .def_99 () (Array Int Int) (select .def_14 .def_44))
(define-fun .def_100 () Int (select .def_99 .def_98))
(define-fun .def_392 () Bool (= |.x{1699}| .def_100))
(define-fun .def_426 () Bool (and .def_392 .def_425))
(define-fun .def_427 () Bool (or .def_64 .def_426))
(define-fun .def_160 () Int (* 4 |.x{1686}|))
(define-fun .def_163 () Int (+ .def_160 |.x{1697}|))
(define-fun .def_162 () (Array Int Int) (select |.x{1675}| |.x{1695}|))
(define-fun .def_164 () Int (select .def_162 .def_163))
(define-fun .def_418 () Bool (= |.x{1698}| .def_164))
(define-fun .def_413 () Bool (= |.x{1698}| 0))
(define-fun .def_416 () Bool (and |.x{1687}| .def_413))
(define-fun .def_414 () Bool (not .def_413))
(define-fun .def_382 () Bool (not |.x{1687}|))
(define-fun .def_415 () Bool (and .def_382 .def_414))
(define-fun .def_417 () Bool (or .def_415 .def_416))
(define-fun .def_419 () Bool (and .def_417 .def_418))
(define-fun .def_420 () Bool (and |.x{2083}| .def_419))
(define-fun .def_421 () Bool (or |.x{1642}| .def_420))
(define-fun .def_384 () Bool (and .def_84 .def_324))
(define-fun .def_411 () Bool (and .def_105 .def_384))
(define-fun .def_412 () Bool (and .def_107 .def_411))
(define-fun .def_422 () Bool (and .def_412 .def_421))
(define-fun .def_428 () Bool (and .def_422 .def_427))
(define-fun .def_429 () Bool (and .def_117 .def_428))
(define-fun .def_430 () Bool (and .def_119 .def_429))
(define-fun .def_431 () Bool (and .def_121 .def_430))
(define-fun .def_432 () Bool (and .def_125 .def_431))
(define-fun .def_433 () Bool (and .def_218 .def_432))
(define-fun .def_434 () Bool (and .def_127 .def_433))
(define-fun .def_435 () Bool (and .def_129 .def_434))
(define-fun .def_436 () Bool (and .def_131 .def_435))
(define-fun .def_437 () Bool (and .def_137 .def_436))
(define-fun .def_438 () Bool (and .def_139 .def_437))
(define-fun .def_439 () Bool (and .def_66 .def_438))
(define-fun .def_440 () Bool (and .def_148 .def_439))
(define-fun .def_441 () Bool (and .def_150 .def_440))
(define-fun .def_659 () Bool (or .def_441 .def_658))
(define-fun .def_390 () Bool (and .def_382 .def_387))
(define-fun .def_389 () Bool (and |.x{1687}| .def_388))
(define-fun .def_391 () Bool (or .def_389 .def_390))
(define-fun .def_393 () Bool (and .def_391 .def_392))
(define-fun .def_394 () Bool (or .def_64 .def_393))
(define-fun .def_383 () Bool (or |.x{1642}| .def_382))
(define-fun .def_385 () Bool (and .def_383 .def_384))
(define-fun .def_386 () Bool (and .def_105 .def_385))
(define-fun .def_395 () Bool (and .def_386 .def_394))
(define-fun .def_396 () Bool (and .def_107 .def_395))
(define-fun .def_397 () Bool (and .def_117 .def_396))
(define-fun .def_398 () Bool (and .def_119 .def_397))
(define-fun .def_399 () Bool (and .def_121 .def_398))
(define-fun .def_400 () Bool (and .def_125 .def_399))
(define-fun .def_401 () Bool (and .def_218 .def_400))
(define-fun .def_402 () Bool (and .def_127 .def_401))
(define-fun .def_403 () Bool (and .def_129 .def_402))
(define-fun .def_404 () Bool (and .def_131 .def_403))
(define-fun .def_405 () Bool (and .def_137 .def_404))
(define-fun .def_406 () Bool (and .def_139 .def_405))
(define-fun .def_407 () Bool (and .def_141 .def_406))
(define-fun .def_408 () Bool (and .def_66 .def_407))
(define-fun .def_409 () Bool (and .def_148 .def_408))
(define-fun .def_410 () Bool (and .def_150 .def_409))
(define-fun .def_660 () Bool (or .def_410 .def_659))
(define-fun .def_113 () Bool (= .def_22 |.x{1679}|))
(define-fun .def_111 () Bool (= .def_18 |.x{1677}|))
(define-fun .def_376 () Bool (and .def_111 .def_113))
(define-fun .def_115 () Bool (= .def_26 |.x{1681}|))
(define-fun .def_377 () Bool (and .def_115 .def_376))
(define-fun .def_42 () Bool (! |.x{1033}| :next |.x{1689}|))
(define-fun .def_279 () Bool (= .def_42 |.x{1689}|))
(define-fun .def_378 () Bool (and .def_279 .def_377))
(define-fun .def_48 () Int (! |.x{1036}| :next |.x{1692}|))
(define-fun .def_133 () Bool (= .def_48 |.x{1692}|))
(define-fun .def_379 () Bool (and .def_133 .def_378))
(define-fun .def_50 () Int (! |.x{1037}| :next |.x{1693}|))
(define-fun .def_284 () Bool (= .def_50 |.x{1693}|))
(define-fun .def_380 () Bool (and .def_284 .def_379))
(define-fun .def_52 () Int (! |.x{1038}| :next |.x{1694}|))
(define-fun .def_135 () Bool (= .def_52 |.x{1694}|))
(define-fun .def_381 () Bool (and .def_135 .def_380))
(define-fun .def_661 () Bool (and .def_381 .def_660))
(define-fun .def_365 () Bool (= |.x{1681}| 0))
(define-fun .def_364 () Bool (= |.x{1677}| 0))
(define-fun .def_366 () Bool (and .def_364 .def_365))
(define-fun .def_362 () (Array Int Int) (store .def_10 0 0))
(define-fun .def_363 () Bool (= |.x{115}| .def_362))
(define-fun .def_367 () Bool (and .def_363 .def_366))
(define-fun .def_368 () Bool (or .def_64 .def_367))
(define-fun .def_356 () Bool (<= |.x{1672}| |.x{1695}|))
(define-fun .def_357 () Bool (not .def_356))
(define-fun .def_353 () Bool (<= |.x{1672}| |.x{1690}|))
(define-fun .def_354 () Bool (not .def_353))
(define-fun .def_343 () (Array Int Int) (store .def_22 |.x{1690}| 400000))
(define-fun .def_344 () (Array Int Int) (store .def_343 |.x{1695}| 400000))
(define-fun .def_345 () Bool (= |.x{1679}| .def_344))
(define-fun .def_334 () (Array Int Int) (store |.x{115}| |.x{1690}| 1))
(define-fun .def_339 () Int (select .def_334 |.x{1695}|))
(define-fun .def_340 () Bool (= .def_339 0))
(define-fun .def_337 () Bool (= |.x{1695}| 0))
(define-fun .def_338 () Bool (not .def_337))
(define-fun .def_341 () Bool (and .def_338 .def_340))
(define-fun .def_346 () Bool (and .def_341 .def_345))
(define-fun .def_335 () (Array Int Int) (store .def_334 |.x{1695}| 1))
(define-fun .def_336 () Bool (= |.x{1673}| .def_335))
(define-fun .def_347 () Bool (and .def_336 .def_346))
(define-fun .def_332 () Bool (= |.x{1690}| 0))
(define-fun .def_333 () Bool (not .def_332))
(define-fun .def_348 () Bool (and .def_333 .def_347))
(define-fun .def_350 () Bool (and .def_348 .def_349))
(define-fun .def_331 () Bool (= |.x{1697}| 0))
(define-fun .def_351 () Bool (and .def_331 .def_350))
(define-fun .def_330 () Bool (= |.x{1684}| 0))
(define-fun .def_352 () Bool (and .def_330 .def_351))
(define-fun .def_355 () Bool (and .def_352 .def_354))
(define-fun .def_358 () Bool (and .def_355 .def_357))
(define-fun .def_328 () Int (select |.x{115}| |.x{1690}|))
(define-fun .def_329 () Bool (= .def_328 0))
(define-fun .def_359 () Bool (and .def_329 .def_358))
(define-fun .def_360 () Bool (or |.x{1642}| .def_359))
(define-fun .def_326 () Bool (and .def_107 .def_325))
(define-fun .def_361 () Bool (and .def_326 .def_360))
(define-fun .def_369 () Bool (and .def_361 .def_368))
(define-fun .def_370 () Bool (and .def_125 .def_369))
(define-fun .def_371 () Bool (and .def_218 .def_370))
(define-fun .def_372 () Bool (and .def_129 .def_371))
(define-fun .def_373 () Bool (and .def_70 .def_372))
(define-fun .def_374 () Bool (and .def_146 .def_373))
(define-fun .def_375 () Bool (and .def_148 .def_374))
(define-fun .def_662 () Bool (or .def_375 .def_661))
(define-fun .def_109 () Bool (= .def_14 |.x{1675}|))
(define-fun .def_663 () Bool (and .def_109 .def_662))
(define-fun .def_256 () (Array Int Int) (select .def_14 |.x{1695}|))
(define-fun .def_294 () (Array Int Int) (store .def_256 .def_163 1))
(define-fun .def_295 () (Array Int (Array Int Int)) (store .def_14 |.x{1695}| .def_294))
(define-fun .def_296 () Bool (= |.x{1675}| .def_295))
(define-fun .def_254 () Bool (<= 0 |.x{552}|))
(define-fun .def_297 () Bool (and .def_254 .def_296))
(define-fun .def_298 () Bool (or |.x{1642}| .def_297))
(define-fun .def_204 () Bool (and .def_76 .def_203))
(define-fun .def_262 () Bool (and |.loc{11}| .def_204))
(define-fun .def_299 () Bool (and .def_262 .def_298))
(define-fun .def_264 () Bool (= .def_100 |.x{552}|))
(define-fun .def_94 () Bool (not .def_93))
(define-fun .def_265 () Bool (and .def_94 .def_264))
(define-fun .def_266 () Bool (or .def_64 .def_265))
(define-fun .def_300 () Bool (and .def_266 .def_299))
(define-fun .def_301 () Bool (and .def_105 .def_300))
(define-fun .def_302 () Bool (and .def_107 .def_301))
(define-fun .def_303 () Bool (and .def_111 .def_302))
(define-fun .def_304 () Bool (and .def_113 .def_303))
(define-fun .def_305 () Bool (and .def_115 .def_304))
(define-fun .def_306 () Bool (and .def_117 .def_305))
(define-fun .def_307 () Bool (and .def_119 .def_306))
(define-fun .def_308 () Bool (and .def_121 .def_307))
(define-fun .def_309 () Bool (and .def_123 .def_308))
(define-fun .def_310 () Bool (and .def_125 .def_309))
(define-fun .def_311 () Bool (and .def_218 .def_310))
(define-fun .def_312 () Bool (and .def_279 .def_311))
(define-fun .def_313 () Bool (and .def_127 .def_312))
(define-fun .def_314 () Bool (and .def_131 .def_313))
(define-fun .def_315 () Bool (and .def_133 .def_314))
(define-fun .def_316 () Bool (and .def_284 .def_315))
(define-fun .def_317 () Bool (and .def_137 .def_316))
(define-fun .def_318 () Bool (and .def_139 .def_317))
(define-fun .def_319 () Bool (and .def_141 .def_318))
(define-fun .def_320 () Bool (and .def_68 .def_319))
(define-fun .def_321 () Bool (and .def_143 .def_320))
(define-fun .def_322 () Bool (and .def_70 .def_321))
(define-fun .def_323 () Bool (and .def_146 .def_322))
(define-fun .def_664 () Bool (or .def_323 .def_663))
(define-fun .def_257 () (Array Int Int) (store .def_256 .def_163 0))
(define-fun .def_258 () (Array Int (Array Int Int)) (store .def_14 |.x{1695}| .def_257))
(define-fun .def_259 () Bool (= |.x{1675}| .def_258))
(define-fun .def_255 () Bool (not .def_254))
(define-fun .def_260 () Bool (and .def_255 .def_259))
(define-fun .def_261 () Bool (or |.x{1642}| .def_260))
(define-fun .def_263 () Bool (and .def_261 .def_262))
(define-fun .def_267 () Bool (and .def_263 .def_266))
(define-fun .def_268 () Bool (and .def_105 .def_267))
(define-fun .def_269 () Bool (and .def_107 .def_268))
(define-fun .def_270 () Bool (and .def_111 .def_269))
(define-fun .def_271 () Bool (and .def_113 .def_270))
(define-fun .def_272 () Bool (and .def_115 .def_271))
(define-fun .def_273 () Bool (and .def_117 .def_272))
(define-fun .def_274 () Bool (and .def_119 .def_273))
(define-fun .def_275 () Bool (and .def_121 .def_274))
(define-fun .def_276 () Bool (and .def_123 .def_275))
(define-fun .def_277 () Bool (and .def_125 .def_276))
(define-fun .def_278 () Bool (and .def_218 .def_277))
(define-fun .def_280 () Bool (and .def_278 .def_279))
(define-fun .def_281 () Bool (and .def_127 .def_280))
(define-fun .def_282 () Bool (and .def_131 .def_281))
(define-fun .def_283 () Bool (and .def_133 .def_282))
(define-fun .def_285 () Bool (and .def_283 .def_284))
(define-fun .def_286 () Bool (and .def_137 .def_285))
(define-fun .def_287 () Bool (and .def_139 .def_286))
(define-fun .def_288 () Bool (and .def_141 .def_287))
(define-fun .def_289 () Bool (and .def_68 .def_288))
(define-fun .def_290 () Bool (and .def_143 .def_289))
(define-fun .def_291 () Bool (and .def_70 .def_290))
(define-fun .def_292 () Bool (and .def_146 .def_291))
(define-fun .def_665 () Bool (or .def_292 .def_664))
(define-fun .def_236 () Bool (and .def_42 .def_235))
(define-fun .def_237 () Bool (or .def_64 .def_236))
(define-fun .def_205 () Bool (and .def_84 .def_204))
(define-fun .def_206 () Bool (and .def_105 .def_205))
(define-fun .def_207 () Bool (and .def_107 .def_206))
(define-fun .def_230 () Bool (and .def_109 .def_207))
(define-fun .def_231 () Bool (and .def_111 .def_230))
(define-fun .def_232 () Bool (and .def_113 .def_231))
(define-fun .def_233 () Bool (and .def_115 .def_232))
(define-fun .def_234 () Bool (and .def_119 .def_233))
(define-fun .def_238 () Bool (and .def_234 .def_237))
(define-fun .def_239 () Bool (and .def_121 .def_238))
(define-fun .def_240 () Bool (and .def_123 .def_239))
(define-fun .def_241 () Bool (and .def_125 .def_240))
(define-fun .def_242 () Bool (and .def_218 .def_241))
(define-fun .def_243 () Bool (and .def_127 .def_242))
(define-fun .def_244 () Bool (and .def_131 .def_243))
(define-fun .def_245 () Bool (and .def_135 .def_244))
(define-fun .def_246 () Bool (and .def_137 .def_245))
(define-fun .def_247 () Bool (and .def_139 .def_246))
(define-fun .def_248 () Bool (and .def_141 .def_247))
(define-fun .def_249 () Bool (and .def_143 .def_248))
(define-fun .def_250 () Bool (and .def_146 .def_249))
(define-fun .def_251 () Bool (and .def_148 .def_250))
(define-fun .def_252 () Bool (and .def_150 .def_251))
(define-fun .def_666 () Bool (or .def_252 .def_665))
(define-fun .def_200 () Bool (not .def_42))
(define-fun .def_201 () Bool (or .def_64 .def_200))
(define-fun .def_208 () Bool (and .def_201 .def_207))
(define-fun .def_209 () Bool (and .def_109 .def_208))
(define-fun .def_210 () Bool (and .def_111 .def_209))
(define-fun .def_211 () Bool (and .def_113 .def_210))
(define-fun .def_212 () Bool (and .def_115 .def_211))
(define-fun .def_213 () Bool (and .def_117 .def_212))
(define-fun .def_214 () Bool (and .def_119 .def_213))
(define-fun .def_215 () Bool (and .def_121 .def_214))
(define-fun .def_216 () Bool (and .def_123 .def_215))
(define-fun .def_217 () Bool (and .def_125 .def_216))
(define-fun .def_219 () Bool (and .def_217 .def_218))
(define-fun .def_220 () Bool (and .def_127 .def_219))
(define-fun .def_221 () Bool (and .def_131 .def_220))
(define-fun .def_222 () Bool (and .def_135 .def_221))
(define-fun .def_223 () Bool (and .def_137 .def_222))
(define-fun .def_224 () Bool (and .def_139 .def_223))
(define-fun .def_225 () Bool (and .def_141 .def_224))
(define-fun .def_226 () Bool (and .def_143 .def_225))
(define-fun .def_227 () Bool (and .def_146 .def_226))
(define-fun .def_228 () Bool (and .def_148 .def_227))
(define-fun .def_229 () Bool (and .def_150 .def_228))
(define-fun .def_667 () Bool (or .def_229 .def_666))
(define-fun .def_87 () Bool (<= 0 |.x{1693}|))
(define-fun .def_172 () Bool (and .def_87 |.x{2083}|))
(define-fun .def_88 () Bool (not .def_87))
(define-fun .def_171 () Bool (and .def_88 .def_170))
(define-fun .def_173 () Bool (or .def_171 .def_172))
(define-fun .def_174 () Bool (and .def_94 .def_173))
(define-fun .def_101 () Bool (= |.x{1693}| .def_100))
(define-fun .def_175 () Bool (and .def_101 .def_174))
(define-fun .def_176 () Bool (or .def_64 .def_175))
(define-fun .def_165 () Bool (= |.x{1692}| .def_164))
(define-fun .def_153 () Bool (= |.x{1692}| 0))
(define-fun .def_155 () Bool (not .def_153))
(define-fun .def_74 () Bool (not |.x{1689}|))
(define-fun .def_156 () Bool (and .def_74 .def_155))
(define-fun .def_154 () Bool (and |.x{1689}| .def_153))
(define-fun .def_157 () Bool (or .def_154 .def_156))
(define-fun .def_159 () Bool (and .def_157 |.x{2083}|))
(define-fun .def_166 () Bool (and .def_159 .def_165))
(define-fun .def_167 () Bool (or |.x{1642}| .def_166))
(define-fun .def_152 () Bool (and .def_82 .def_84))
(define-fun .def_168 () Bool (and .def_152 .def_167))
(define-fun .def_169 () Bool (and .def_105 .def_168))
(define-fun .def_177 () Bool (and .def_169 .def_176))
(define-fun .def_178 () Bool (and .def_107 .def_177))
(define-fun .def_179 () Bool (and .def_109 .def_178))
(define-fun .def_180 () Bool (and .def_111 .def_179))
(define-fun .def_181 () Bool (and .def_113 .def_180))
(define-fun .def_182 () Bool (and .def_115 .def_181))
(define-fun .def_183 () Bool (and .def_117 .def_182))
(define-fun .def_184 () Bool (and .def_119 .def_183))
(define-fun .def_185 () Bool (and .def_121 .def_184))
(define-fun .def_186 () Bool (and .def_123 .def_185))
(define-fun .def_187 () Bool (and .def_125 .def_186))
(define-fun .def_188 () Bool (and .def_127 .def_187))
(define-fun .def_189 () Bool (and .def_129 .def_188))
(define-fun .def_190 () Bool (and .def_131 .def_189))
(define-fun .def_191 () Bool (and .def_135 .def_190))
(define-fun .def_192 () Bool (and .def_137 .def_191))
(define-fun .def_193 () Bool (and .def_139 .def_192))
(define-fun .def_194 () Bool (and .def_141 .def_193))
(define-fun .def_195 () Bool (and .def_143 .def_194))
(define-fun .def_196 () Bool (and .def_72 .def_195))
(define-fun .def_197 () Bool (and .def_146 .def_196))
(define-fun .def_198 () Bool (and .def_148 .def_197))
(define-fun .def_199 () Bool (and .def_150 .def_198))
(define-fun .def_668 () Bool (or .def_199 .def_667))
(define-fun .def_90 () Bool (and |.x{1689}| .def_87))
(define-fun .def_89 () Bool (and .def_74 .def_88))
(define-fun .def_91 () Bool (or .def_89 .def_90))
(define-fun .def_95 () Bool (and .def_91 .def_94))
(define-fun .def_102 () Bool (and .def_95 .def_101))
(define-fun .def_103 () Bool (or .def_64 .def_102))
(define-fun .def_75 () Bool (or |.x{1642}| .def_74))
(define-fun .def_83 () Bool (and .def_75 .def_82))
(define-fun .def_85 () Bool (and .def_83 .def_84))
(define-fun .def_104 () Bool (and .def_85 .def_103))
(define-fun .def_106 () Bool (and .def_104 .def_105))
(define-fun .def_108 () Bool (and .def_106 .def_107))
(define-fun .def_110 () Bool (and .def_108 .def_109))
(define-fun .def_112 () Bool (and .def_110 .def_111))
(define-fun .def_114 () Bool (and .def_112 .def_113))
(define-fun .def_116 () Bool (and .def_114 .def_115))
(define-fun .def_118 () Bool (and .def_116 .def_117))
(define-fun .def_120 () Bool (and .def_118 .def_119))
(define-fun .def_122 () Bool (and .def_120 .def_121))
(define-fun .def_124 () Bool (and .def_122 .def_123))
(define-fun .def_126 () Bool (and .def_124 .def_125))
(define-fun .def_128 () Bool (and .def_126 .def_127))
(define-fun .def_130 () Bool (and .def_128 .def_129))
(define-fun .def_132 () Bool (and .def_130 .def_131))
(define-fun .def_134 () Bool (and .def_132 .def_133))
(define-fun .def_136 () Bool (and .def_134 .def_135))
(define-fun .def_138 () Bool (and .def_136 .def_137))
(define-fun .def_140 () Bool (and .def_138 .def_139))
(define-fun .def_142 () Bool (and .def_140 .def_141))
(define-fun .def_144 () Bool (and .def_142 .def_143))
(define-fun .def_145 () Bool (and .def_72 .def_144))
(define-fun .def_147 () Bool (and .def_145 .def_146))
(define-fun .def_149 () Bool (and .def_147 .def_148))
(define-fun .def_151 () Bool (and .def_149 .def_150))
(define-fun .def_669 () Bool (or .def_151 .def_668))
(define-fun .def_681 () Bool (! (and .def_669 .def_680) :trans true))
(define-fun .def_697 () Bool (and .def_66 .def_68))
(define-fun .def_698 () Bool (and .def_150 .def_697))
(define-fun .def_699 () Bool (and .def_72 .def_698))
(define-fun .def_700 () Bool (and .def_64 .def_699))
(define-fun .def_701 () Bool (! (not .def_700) :invar-property 0))
(assert true)
